c User generated cnf file
p cnf 8 44
-5 2 6 0 
-6 1 2 0 
-3 1 2 0 
-1 8 2 0 
3 -1 7 0 
4 8 -2 0 
2 2 -4 0 
1 -7 2 0 
2 -3 4 0 
7 7 -2 0 
3 8 -6 0 
5 7 -5 0 
2 5 -2 0 
6 -7 7 0 
2 -5 7 0 
-7 2 2 0 
-4 4 1 0 
5 -4 7 0 
1 -6 5 0 
-2 2 3 0 
3 1 -7 0 
-2 3 7 0 
-7 5 5 0 
6 2 -2 0 
5 -5 2 0 
7 -7 7 0 
7 -2 6 0 
6 -8 2 0 
7 1 -8 0 
-4 5 4 0 
-4 6 5 0 
5 -5 3 0 
8 -7 1 0 
8 -7 1 0 
5 -8 2 0 
2 7 -3 0 
6 -5 6 0 
5 5 -4 0 
-1 6 8 0 
-7 5 1 0 
-8 8 2 0 
5 -5 8 0 
1 7 -5 0 
-3 8 8 0 
